# Solution for model iteration_27
# Objective value = 3.1599676892806355e+02
0 0
2 7.7809038537968760e+01
7 6.8868446176585465e+01
10 0
12 0
13 0
15 0
16 0
18 6.5793038537968755e+01
c(11,2)_rl 0
c(11,2)_ru 0
c(17,18)_rl 0
c(17,18)_ru 0
c(16,2)_rl 0
c(16,2)_ru 0
c(1,0)_rl 1.4013274609075994e+01
c(1,0)_ru 0
c(9,10)_rl 3.4907247714013479e+01
c(9,10)_ru 0
c(14,0)_rl 1.5394280799121084e+01
c(14,0)_ru 0
c(8,7)_rl 1.2069958949740597e+01
c(8,7)_ru 0
c(5,0)_rl 1.5896091170464222e+01
c(5,0)_ru 0
c(6,0)_rl 1.2018208461895854e+01
c(6,0)_ru 0
c(19,13)_rl 9.0840225935402842e+01
c(19,13)_ru 0
c(4,15)_rl 5.9994534765968922e+01
c(4,15)_ru 0
c(3,2)_rl 0
c(3,2)_ru 4.8592304757541465e+00
c(20,12)_rl 5.6003716046626444e+01
c(20,12)_ru 0
lambda[0] 0
lambda[1] 0
lambda[2] 0
lambda[3] 0
lambda[4] 0
lambda[5] 0
lambda[6] 0
lambda[7] 0
lambda[8] 0
lambda[9] 0
lambda[10] 0
lambda[11] 0
lambda[12] 0
lambda[13] 0
lambda[14] 0
lambda[15] 0
lambda[16] 0
lambda[17] 0
lambda[18] 0
lambda[19] 0
lambda[20] 0
lambda[21] 0
lambda[22] 0
lambda[23] 0
lambda[24] 0
lambda[25] 1.6029174964241305e-01
lambda[26] 0.839708250357587
phi[0] 6.9314718055994518e-01
